100 2213
153 462 435 876 381 408 963 147 546 66 9 57 207 474 315 426 489 432 213 39 276 783 927 960 123 885 843 621 252 159 183 135 471 423 303 141 357 957 177 819 912 171 477 33 621 243 408 99 495 672 210 825 639 597 990 297 708 498 876 114 795 876 147 36 294 900 195 555 279 204 285 630 291 69 321 720 153 453 363 999 990 708 729 81 315 588 309 879 423 588 69 756 237 531 240 318 843 504 186 186 
152 460 434 874 379 407 963 145 544 64 9 57 205 472 313 426 488 432 212 39 275 781 926 958 123 884 842 621 252 158 183 134 470 421 301 139 355 957 176 817 910 171 475 33 620 241 406 98 494 671 209 824 637 595 990 296 708 498 874 113 794 876 147 35 292 899 195 555 278 203 283 629 291 67 320 720 152 451 362 997 989 708 727 80 315 586 308 877 422 588 68 755 235 530 238 316 843 502 186 186 
